Minimize
	value: tt

Subject to
tt + 500 s_1_1 > 0
tt - t_1_1 - 501.448889 s_1_1 + 1.448889 s_1_6 > -497.943067
tt + 500 s_2_1 > 0
tt - t_2_1 - 502.897778 s_2_1 + 2.897778 s_2_6 > -492.105647
tt + 500 s_1_2 > 0
tt - t_1_2 - 501.448889 s_1_2 + 1.448889 s_1_7 > -497.418322
tt + 500 s_2_2 > 0
tt - t_2_2 - 502.897778 s_2_2 + 2.897778 s_2_7 > -491.381716
tt + 500 s_1_3 > 0
tt - t_1_3 - 501.448889 s_1_3 + 1.448889 s_1_7 > -497.104767
tt + 500 s_2_3 > 0
tt - t_2_3 - 502.897778 s_2_3 + 2.897778 s_2_7 > -487.212582
tt + 500 s_1_4 > 0
tt - t_1_4 - 508.693333 s_1_4 + 8.693333 s_1_7 > -498.538878
tt + 500 s_2_4 > 0
tt - t_2_4 - 517.386667 s_2_4 + 17.386667 s_2_7 > -492.750181
tt + 500 s_1_5 > 0
tt - t_1_5 - 505.795556 s_1_5 + 5.795556 s_1_7 > -498.679967
tt + 500 s_2_5 > 0
tt - t_2_5 - 511.591111 s_2_5 + 11.591111 s_2_7 > -493.771886
tt + 500 s_1_6 > 0
tt - t_1_6 - 500.000000 s_1_6 > -494.919422
tt + 500 s_2_6 > 0
tt - t_2_6 - 500.000000 s_2_6 > -481.304279
tt + 500 s_1_7 > 0
tt - t_1_7 - 500.000000 s_1_7 > -497.364489
tt + 500 s_2_7 > 0
tt - t_2_7 - 500.000000 s_2_7 > -493.675957
tt + 500 s_1_8 > 0
tt - t_1_8 - 565.200000 s_1_8 + 65.200000 s_1_5 > -499.718600
tt + 500 s_2_8 > 0
tt - t_2_8 - 630.400000 s_2_8 + 130.400000 s_2_5 > -495.684500
s_1_1 + s_2_1  = 1
s_1_2 + s_2_2  = 1
s_1_3 + s_2_3  = 1
s_1_4 + s_2_4  = 1
s_1_5 + s_2_5  = 1
s_1_6 + s_2_6  = 1
s_1_7 + s_2_7  = 1
s_1_8 + s_2_8  = 1
t_1_1 - t_1_2 + 500.000000 u_1_1_2 - 1.448889 s_1_2 + 1.448889 s_1_7 > 2.581678
t_1_2 - t_1_1 - 500.000000 u_1_1_2 > -497.943067
t_2_1 - t_2_2 + 500.000000 u_2_1_2 - 2.897778 s_2_2 + 2.897778 s_2_7 > 8.618284
t_2_2 - t_2_1 - 500.000000 u_2_1_2 > -492.105647
t_1_1 - t_1_3 + 500.000000 u_1_1_3 - 1.448889 s_1_3 + 1.448889 s_1_7 > 2.895233
t_1_3 - t_1_1 - 500.000000 u_1_1_3 > -497.943067
t_2_1 - t_2_3 + 500.000000 u_2_1_3 - 2.897778 s_2_3 + 2.897778 s_2_7 > 12.787418
t_2_3 - t_2_1 - 500.000000 u_2_1_3 > -492.105647
t_1_1 - t_1_4 + 500.000000 u_1_1_4 - 4.346667 s_1_4 + 4.346667 s_1_7 > 1.461122
t_1_4 - t_1_1 - 500.000000 u_1_1_4 > -497.943067
t_2_1 - t_2_4 + 500.000000 u_2_1_4 - 8.693333 s_2_4 + 8.693333 s_2_7 > 7.249819
t_2_4 - t_2_1 - 500.000000 u_2_1_4 > -492.105647
t_1_1 - t_1_5 + 500.000000 u_1_1_5 - 2.897778 s_1_5 + 2.897778 s_1_7 > 1.320033
t_1_5 - t_1_1 - 500.000000 u_1_1_5 > -497.943067
t_2_1 - t_2_5 + 500.000000 u_2_1_5 - 5.795556 s_2_5 + 5.795556 s_2_7 > 6.228114
t_2_5 - t_2_1 - 500.000000 u_2_1_5 > -492.105647
t_1_1 - t_1_6 - 500.000000 s_1_6 > -488.056978
t_1_1 - t_2_6 - 500.000000 s_2_6 > -467.579390
t_2_1 - t_1_6 - 500.000000 s_1_6 > -488.056978
t_2_1 - t_2_6 - 500.000000 s_2_6 > -467.579390
t_1_1 - t_1_7 + 500.000000 u_1_1_7 > 2.635511
t_1_7 - t_1_1 - 500.000000 u_1_1_7 > -497.943067
t_2_1 - t_2_7 + 500.000000 u_2_1_7 > 6.324043
t_2_7 - t_2_1 - 500.000000 u_2_1_7 > -492.105647
t_1_8 - t_1_1 - 500.000000 s_1_1 > -496.494178
t_1_8 - t_2_1 - 500.000000 s_2_1 > -489.207869
t_2_8 - t_1_1 - 500.000000 s_1_1 > -496.494178
t_2_8 - t_2_1 - 500.000000 s_2_1 > -489.207869
t_1_2 - t_1_1 + 500.000000 u_1_2_1 - 1.448889 s_1_1 + 1.448889 s_1_6 > 2.056933
t_1_1 - t_1_2 - 500.000000 u_1_2_1 > -497.418322
t_2_2 - t_2_1 + 500.000000 u_2_2_1 - 2.897778 s_2_1 + 2.897778 s_2_6 > 7.894353
t_2_1 - t_2_2 - 500.000000 u_2_2_1 > -491.381716
t_1_2 - t_1_3 + 500.000000 u_1_2_3 - 1.448889 s_1_3 + 1.448889 s_1_7 > 2.895233
t_1_3 - t_1_2 - 500.000000 u_1_2_3 > -497.418322
t_2_2 - t_2_3 + 500.000000 u_2_2_3 - 2.897778 s_2_3 + 2.897778 s_2_7 > 12.787418
t_2_3 - t_2_2 - 500.000000 u_2_2_3 > -491.381716
t_1_2 - t_1_4 + 500.000000 u_1_2_4 - 4.346667 s_1_4 + 4.346667 s_1_7 > 1.461122
t_1_4 - t_1_2 - 500.000000 u_1_2_4 > -497.418322
t_2_2 - t_2_4 + 500.000000 u_2_2_4 - 8.693333 s_2_4 + 8.693333 s_2_7 > 7.249819
t_2_4 - t_2_2 - 500.000000 u_2_2_4 > -491.381716
t_1_2 - t_1_5 + 500.000000 u_1_2_5 - 2.897778 s_1_5 + 2.897778 s_1_7 > 1.320033
t_1_5 - t_1_2 - 500.000000 u_1_2_5 > -497.418322
t_2_2 - t_2_5 + 500.000000 u_2_2_5 - 5.795556 s_2_5 + 5.795556 s_2_7 > 6.228114
t_2_5 - t_2_2 - 500.000000 u_2_2_5 > -491.381716
t_1_2 - t_1_6 + 500.000000 u_1_2_6 > 5.080578
t_1_6 - t_1_2 - 500.000000 u_1_2_6 > -497.418322
t_2_2 - t_2_6 + 500.000000 u_2_2_6 > 18.695721
t_2_6 - t_2_2 - 500.000000 u_2_2_6 > -491.381716
t_1_2 - t_1_7 - 500.000000 s_1_7 > -490.120044
t_1_2 - t_2_7 - 500.000000 s_2_7 > -479.187068
t_2_2 - t_1_7 - 500.000000 s_1_7 > -490.120044
t_2_2 - t_2_7 - 500.000000 s_2_7 > -479.187068
t_1_8 - t_1_2 - 500.000000 s_1_2 > -495.969433
t_1_8 - t_2_2 - 500.000000 s_2_2 > -488.483938
t_2_8 - t_1_2 - 500.000000 s_1_2 > -495.969433
t_2_8 - t_2_2 - 500.000000 s_2_2 > -488.483938
t_1_3 - t_1_1 + 500.000000 u_1_3_1 - 1.448889 s_1_1 + 1.448889 s_1_6 > 2.056933
t_1_1 - t_1_3 - 500.000000 u_1_3_1 > -497.104767
t_2_3 - t_2_1 + 500.000000 u_2_3_1 - 2.897778 s_2_1 + 2.897778 s_2_6 > 7.894353
t_2_1 - t_2_3 - 500.000000 u_2_3_1 > -487.212582
t_1_3 - t_1_2 + 500.000000 u_1_3_2 - 1.448889 s_1_2 + 1.448889 s_1_7 > 2.581678
t_1_2 - t_1_3 - 500.000000 u_1_3_2 > -497.104767
t_2_3 - t_2_2 + 500.000000 u_2_3_2 - 2.897778 s_2_2 + 2.897778 s_2_7 > 8.618284
t_2_2 - t_2_3 - 500.000000 u_2_3_2 > -487.212582
t_1_4 - t_1_3 - 500.000000 s_1_3 > -495.655878
t_1_4 - t_2_3 - 500.000000 s_2_3 > -484.314804
t_2_4 - t_1_3 - 500.000000 s_1_3 > -495.655878
t_2_4 - t_2_3 - 500.000000 s_2_3 > -484.314804
t_1_3 - t_1_5 + 500.000000 u_1_3_5 - 2.897778 s_1_5 + 2.897778 s_1_7 > 1.320033
t_1_5 - t_1_3 - 500.000000 u_1_3_5 > -497.104767
t_2_3 - t_2_5 + 500.000000 u_2_3_5 - 5.795556 s_2_5 + 5.795556 s_2_7 > 6.228114
t_2_5 - t_2_3 - 500.000000 u_2_3_5 > -487.212582
t_1_3 - t_1_6 + 500.000000 u_1_3_6 > 5.080578
t_1_6 - t_1_3 - 500.000000 u_1_3_6 > -497.104767
t_2_3 - t_2_6 + 500.000000 u_2_3_6 > 18.695721
t_2_6 - t_2_3 - 500.000000 u_2_3_6 > -487.212582
t_1_3 - t_1_7 - 500.000000 s_1_7 > -490.120044
t_1_3 - t_2_7 - 500.000000 s_2_7 > -479.187068
t_2_3 - t_1_7 - 500.000000 s_1_7 > -490.120044
t_2_3 - t_2_7 - 500.000000 s_2_7 > -479.187068
t_1_8 - t_1_3 - 500.000000 s_1_3 > -495.655878
t_1_8 - t_2_3 - 500.000000 s_2_3 > -484.314804
t_2_8 - t_1_3 - 500.000000 s_1_3 > -495.655878
t_2_8 - t_2_3 - 500.000000 s_2_3 > -484.314804
t_1_4 - t_1_1 + 500.000000 u_1_4_1 - 1.448889 s_1_1 + 1.448889 s_1_6 > 2.056933
t_1_1 - t_1_4 - 500.000000 u_1_4_1 > -498.538878
t_2_4 - t_2_1 + 500.000000 u_2_4_1 - 2.897778 s_2_1 + 2.897778 s_2_6 > 7.894353
t_2_1 - t_2_4 - 500.000000 u_2_4_1 > -492.750181
t_1_4 - t_1_2 + 500.000000 u_1_4_2 - 1.448889 s_1_2 + 1.448889 s_1_7 > 2.581678
t_1_2 - t_1_4 - 500.000000 u_1_4_2 > -498.538878
t_2_4 - t_2_2 + 500.000000 u_2_4_2 - 2.897778 s_2_2 + 2.897778 s_2_7 > 8.618284
t_2_2 - t_2_4 - 500.000000 u_2_4_2 > -492.750181
t_1_4 - t_1_3 - 500.000000 s_1_3 > -495.655878
t_1_4 - t_2_3 - 500.000000 s_2_3 > -484.314804
t_2_4 - t_1_3 - 500.000000 s_1_3 > -495.655878
t_2_4 - t_2_3 - 500.000000 s_2_3 > -484.314804
t_1_4 - t_1_5 + 500.000000 u_1_4_5 - 2.897778 s_1_5 + 2.897778 s_1_7 > 1.320033
t_1_5 - t_1_4 - 500.000000 u_1_4_5 > -498.538878
t_2_4 - t_2_5 + 500.000000 u_2_4_5 - 5.795556 s_2_5 + 5.795556 s_2_7 > 6.228114
t_2_5 - t_2_4 - 500.000000 u_2_4_5 > -492.750181
t_1_4 - t_1_6 + 500.000000 u_1_4_6 > 5.080578
t_1_6 - t_1_4 - 500.000000 u_1_4_6 > -498.538878
t_2_4 - t_2_6 + 500.000000 u_2_4_6 > 18.695721
t_2_6 - t_2_4 - 500.000000 u_2_4_6 > -492.750181
t_1_4 - t_1_7 - 500.000000 s_1_7 > -490.120044
t_1_4 - t_2_7 - 500.000000 s_2_7 > -479.187068
t_2_4 - t_1_7 - 500.000000 s_1_7 > -490.120044
t_2_4 - t_2_7 - 500.000000 s_2_7 > -479.187068
t_1_8 - t_1_4 - 500.000000 s_1_4 > -494.192211
t_1_8 - t_2_4 - 500.000000 s_2_4 > -484.056848
t_2_8 - t_1_4 - 500.000000 s_1_4 > -494.192211
t_2_8 - t_2_4 - 500.000000 s_2_4 > -484.056848
t_1_5 - t_1_1 + 500.000000 u_1_5_1 - 1.448889 s_1_1 + 1.448889 s_1_6 > 2.056933
t_1_1 - t_1_5 - 500.000000 u_1_5_1 > -498.679967
t_2_5 - t_2_1 + 500.000000 u_2_5_1 - 2.897778 s_2_1 + 2.897778 s_2_6 > 7.894353
t_2_1 - t_2_5 - 500.000000 u_2_5_1 > -493.771886
t_1_5 - t_1_2 + 500.000000 u_1_5_2 - 1.448889 s_1_2 + 1.448889 s_1_7 > 2.581678
t_1_2 - t_1_5 - 500.000000 u_1_5_2 > -498.679967
t_2_5 - t_2_2 + 500.000000 u_2_5_2 - 2.897778 s_2_2 + 2.897778 s_2_7 > 8.618284
t_2_2 - t_2_5 - 500.000000 u_2_5_2 > -493.771886
t_1_5 - t_1_3 + 500.000000 u_1_5_3 - 1.448889 s_1_3 + 1.448889 s_1_7 > 2.895233
t_1_3 - t_1_5 - 500.000000 u_1_5_3 > -498.679967
t_2_5 - t_2_3 + 500.000000 u_2_5_3 - 2.897778 s_2_3 + 2.897778 s_2_7 > 12.787418
t_2_3 - t_2_5 - 500.000000 u_2_5_3 > -493.771886
t_1_5 - t_1_4 + 500.000000 u_1_5_4 - 4.346667 s_1_4 + 4.346667 s_1_7 > 1.461122
t_1_4 - t_1_5 - 500.000000 u_1_5_4 > -498.679967
t_2_5 - t_2_4 + 500.000000 u_2_5_4 - 8.693333 s_2_4 + 8.693333 s_2_7 > 7.249819
t_2_4 - t_2_5 - 500.000000 u_2_5_4 > -493.771886
t_1_5 - t_1_6 - 500.000000 s_1_6 > -488.056978
t_1_5 - t_2_6 - 500.000000 s_2_6 > -467.579390
t_2_5 - t_1_6 - 500.000000 s_1_6 > -488.056978
t_2_5 - t_2_6 - 500.000000 s_2_6 > -467.579390
t_1_5 - t_1_7 - 500.000000 s_1_7 > -490.120044
t_1_5 - t_2_7 - 500.000000 s_2_7 > -479.187068
t_2_5 - t_1_7 - 500.000000 s_1_7 > -490.120044
t_2_5 - t_2_7 - 500.000000 s_2_7 > -479.187068
t_1_8 - t_1_5 - 500.000000 s_1_5 > -495.782189
t_1_8 - t_2_5 - 500.000000 s_2_5 > -487.976330
t_2_8 - t_1_5 - 500.000000 s_1_5 > -495.782189
t_2_8 - t_2_5 - 500.000000 s_2_5 > -487.976330
t_1_1 - t_1_6 - 500.000000 s_1_6 > -488.056978
t_1_1 - t_2_6 - 500.000000 s_2_6 > -467.579390
t_2_1 - t_1_6 - 500.000000 s_1_6 > -488.056978
t_2_1 - t_2_6 - 500.000000 s_2_6 > -467.579390
t_1_6 - t_1_2 + 500.000000 u_1_6_2 - 1.448889 s_1_2 + 1.448889 s_1_7 > 2.581678
t_1_2 - t_1_6 - 500.000000 u_1_6_2 > -494.919422
t_2_6 - t_2_2 + 500.000000 u_2_6_2 - 2.897778 s_2_2 + 2.897778 s_2_7 > 8.618284
t_2_2 - t_2_6 - 500.000000 u_2_6_2 > -481.304279
t_1_6 - t_1_3 + 500.000000 u_1_6_3 - 1.448889 s_1_3 + 1.448889 s_1_7 > 2.895233
t_1_3 - t_1_6 - 500.000000 u_1_6_3 > -494.919422
t_2_6 - t_2_3 + 500.000000 u_2_6_3 - 2.897778 s_2_3 + 2.897778 s_2_7 > 12.787418
t_2_3 - t_2_6 - 500.000000 u_2_6_3 > -481.304279
t_1_6 - t_1_4 + 500.000000 u_1_6_4 - 4.346667 s_1_4 + 4.346667 s_1_7 > 1.461122
t_1_4 - t_1_6 - 500.000000 u_1_6_4 > -494.919422
t_2_6 - t_2_4 + 500.000000 u_2_6_4 - 8.693333 s_2_4 + 8.693333 s_2_7 > 7.249819
t_2_4 - t_2_6 - 500.000000 u_2_6_4 > -481.304279
t_1_5 - t_1_6 - 500.000000 s_1_6 > -488.056978
t_1_5 - t_2_6 - 500.000000 s_2_6 > -467.579390
t_2_5 - t_1_6 - 500.000000 s_1_6 > -488.056978
t_2_5 - t_2_6 - 500.000000 s_2_6 > -467.579390
t_1_6 - t_1_7 + 500.000000 u_1_6_7 > 2.635511
t_1_7 - t_1_6 - 500.000000 u_1_6_7 > -494.919422
t_2_6 - t_2_7 + 500.000000 u_2_6_7 > 6.324043
t_2_7 - t_2_6 - 500.000000 u_2_6_7 > -481.304279
t_1_7 - t_1_1 + 500.000000 u_1_7_1 - 1.448889 s_1_1 + 1.448889 s_1_6 > 2.056933
t_1_1 - t_1_7 - 500.000000 u_1_7_1 > -497.364489
t_2_7 - t_2_1 + 500.000000 u_2_7_1 - 2.897778 s_2_1 + 2.897778 s_2_6 > 7.894353
t_2_1 - t_2_7 - 500.000000 u_2_7_1 > -493.675957
t_1_2 - t_1_7 - 500.000000 s_1_7 > -490.120044
t_1_2 - t_2_7 - 500.000000 s_2_7 > -479.187068
t_2_2 - t_1_7 - 500.000000 s_1_7 > -490.120044
t_2_2 - t_2_7 - 500.000000 s_2_7 > -479.187068
t_1_3 - t_1_7 - 500.000000 s_1_7 > -490.120044
t_1_3 - t_2_7 - 500.000000 s_2_7 > -479.187068
t_2_3 - t_1_7 - 500.000000 s_1_7 > -490.120044
t_2_3 - t_2_7 - 500.000000 s_2_7 > -479.187068
t_1_4 - t_1_7 - 500.000000 s_1_7 > -490.120044
t_1_4 - t_2_7 - 500.000000 s_2_7 > -479.187068
t_2_4 - t_1_7 - 500.000000 s_1_7 > -490.120044
t_2_4 - t_2_7 - 500.000000 s_2_7 > -479.187068
t_1_5 - t_1_7 - 500.000000 s_1_7 > -490.120044
t_1_5 - t_2_7 - 500.000000 s_2_7 > -479.187068
t_2_5 - t_1_7 - 500.000000 s_1_7 > -490.120044
t_2_5 - t_2_7 - 500.000000 s_2_7 > -479.187068
t_1_7 - t_1_6 + 500.000000 u_1_7_6 > 5.080578
t_1_6 - t_1_7 - 500.000000 u_1_7_6 > -497.364489
t_2_7 - t_2_6 + 500.000000 u_2_7_6 > 18.695721
t_2_6 - t_2_7 - 500.000000 u_2_7_6 > -493.675957
t_1_8 - t_1_1 - 500.000000 s_1_1 > -496.494178
t_1_8 - t_2_1 - 500.000000 s_2_1 > -489.207869
t_2_8 - t_1_1 - 500.000000 s_1_1 > -496.494178
t_2_8 - t_2_1 - 500.000000 s_2_1 > -489.207869
t_1_8 - t_1_2 - 500.000000 s_1_2 > -495.969433
t_1_8 - t_2_2 - 500.000000 s_2_2 > -488.483938
t_2_8 - t_1_2 - 500.000000 s_1_2 > -495.969433
t_2_8 - t_2_2 - 500.000000 s_2_2 > -488.483938
t_1_8 - t_1_3 - 500.000000 s_1_3 > -495.655878
t_1_8 - t_2_3 - 500.000000 s_2_3 > -484.314804
t_2_8 - t_1_3 - 500.000000 s_1_3 > -495.655878
t_2_8 - t_2_3 - 500.000000 s_2_3 > -484.314804
t_1_8 - t_1_4 - 500.000000 s_1_4 > -494.192211
t_1_8 - t_2_4 - 500.000000 s_2_4 > -484.056848
t_2_8 - t_1_4 - 500.000000 s_1_4 > -494.192211
t_2_8 - t_2_4 - 500.000000 s_2_4 > -484.056848
t_1_8 - t_1_5 - 500.000000 s_1_5 > -495.782189
t_1_8 - t_2_5 - 500.000000 s_2_5 > -487.976330
t_2_8 - t_1_5 - 500.000000 s_1_5 > -495.782189
t_2_8 - t_2_5 - 500.000000 s_2_5 > -487.976330
Binary
s_1_1
s_2_1
s_1_2
s_2_2
s_1_3
s_2_3
s_1_4
s_2_4
s_1_5
s_2_5
s_1_6
s_2_6
s_1_7
s_2_7
s_1_8
s_2_8
u_1_1_2
u_2_1_2
u_1_1_3
u_2_1_3
u_1_1_4
u_2_1_4
u_1_1_5
u_2_1_5
u_1_1_7
u_2_1_7
u_1_2_1
u_2_2_1
u_1_2_3
u_2_2_3
u_1_2_4
u_2_2_4
u_1_2_5
u_2_2_5
u_1_2_6
u_2_2_6
u_1_3_1
u_2_3_1
u_1_3_2
u_2_3_2
u_1_3_5
u_2_3_5
u_1_3_6
u_2_3_6
u_1_4_1
u_2_4_1
u_1_4_2
u_2_4_2
u_1_4_5
u_2_4_5
u_1_4_6
u_2_4_6
u_1_5_1
u_2_5_1
u_1_5_2
u_2_5_2
u_1_5_3
u_2_5_3
u_1_5_4
u_2_5_4
u_1_6_2
u_2_6_2
u_1_6_3
u_2_6_3
u_1_6_4
u_2_6_4
u_1_6_7
u_2_6_7
u_1_7_1
u_2_7_1
u_1_7_6
u_2_7_6

End
